32      4       
10      10      10      10      
0       0       0       0       0       4       2       6       7       9       
7       1       0       1       1       2       3       18      
5       4       1       0       4       2       4       12      
9       0       5       6       4       2       5       15      
5       0       4       6       4       2       8       31      
2       0       3       5       4       2       8       31      
5       4       0       5       4       3       10      28      31      
4       0       1       6       2       2       10      28      
4       4       6       0       3       5       13      28      29      30      31      
4       2       3       0       5       2       11      29      
5       0       5       1       5       3       13      27      30      
7       4       2       0       5       3       14      27      28      
5       4       5       3       0       2       14      20      
1       6       3       3       0       2       16      25      
7       3       5       0       5       3       17      25      28      
7       6       0       8       4       2       17      26      
9       4       0       4       5       2       19      24      
5       4       0       3       5       4       23      24      27      29      
6       7       5       4       0       1       21      
1       4       5       0       3       2       23      24      
5       5       3       2       0       1       22      
8       3       7       0       5       1       23      
1       0       5       6       4       1       32      
8       2       0       2       2       1       32      
9       5       3       0       1       1       32      
10      4       6       0       5       1       32      
6       3       5       0       7       1       32      
10      0       4       2       1       1       32      
2       4       2       3       0       1       32      
10      6       4       0       5       1       32      
8       3       0       6       7       1       32      
0       0       0       0       0       0       
